c *********************************
c * Circuit generated by BenCGen
c *
c * CarrySkipAdder_56_56_56_InOut_G4T
c *
c * Ports with 1 gate(s): 16
c * Ports with 2 gate(s): 309
c * Ports with 4 gate(s): 14
c * Total gates: 339
c *********************************
p cnf 451 1141
1 171 0
-1 -171 0
1 -170 0
171 -170 0
-1 -171 170 0
1 57 -174 0
-1 57 174 0
1 -57 174 0
-1 -57 -174 0
174 170 -113 0
-174 170 113 0
174 -170 113 0
-174 -170 -113 0
170 -175 0
174 -175 0
-170 -174 175 0
57 -176 0
1 -176 0
-57 -1 176 0
-175 173 0
-176 173 0
175 176 -173 0
2 58 -178 0
-2 58 178 0
2 -58 178 0
-2 -58 -178 0
178 173 -114 0
-178 173 114 0
178 -173 114 0
-178 -173 -114 0
173 -179 0
178 -179 0
-173 -178 179 0
58 -180 0
2 -180 0
-58 -2 180 0
-179 177 0
-180 177 0
179 180 -177 0
3 59 -182 0
-3 59 182 0
3 -59 182 0
-3 -59 -182 0
182 177 -115 0
-182 177 115 0
182 -177 115 0
-182 -177 -115 0
177 -183 0
182 -183 0
-177 -182 183 0
59 -184 0
3 -184 0
-59 -3 184 0
-183 181 0
-184 181 0
183 184 -181 0
4 60 -185 0
-4 60 185 0
4 -60 185 0
-4 -60 -185 0
185 181 -116 0
-185 181 116 0
185 -181 116 0
-185 -181 -116 0
181 -186 0
185 -186 0
-181 -185 186 0
60 -187 0
4 -187 0
-60 -4 187 0
-186 172 0
-187 172 0
186 187 -172 0
174 -188 0
178 -188 0
182 -188 0
185 -188 0
-174 -178 -182 -185 188 0
187 -189 0
-187 189 0
170 -190 0
188 -190 0
-170 -188 190 0
-190 191 0
-172 191 0
190 172 -191 0
5 61 -194 0
-5 61 194 0
5 -61 194 0
-5 -61 -194 0
194 191 -117 0
-194 191 117 0
194 -191 117 0
-194 -191 -117 0
191 -195 0
194 -195 0
-191 -194 195 0
61 -196 0
5 -196 0
-61 -5 196 0
-195 193 0
-196 193 0
195 196 -193 0
6 62 -198 0
-6 62 198 0
6 -62 198 0
-6 -62 -198 0
198 193 -118 0
-198 193 118 0
198 -193 118 0
-198 -193 -118 0
193 -199 0
198 -199 0
-193 -198 199 0
62 -200 0
6 -200 0
-62 -6 200 0
-199 197 0
-200 197 0
199 200 -197 0
7 63 -202 0
-7 63 202 0
7 -63 202 0
-7 -63 -202 0
202 197 -119 0
-202 197 119 0
202 -197 119 0
-202 -197 -119 0
197 -203 0
202 -203 0
-197 -202 203 0
63 -204 0
7 -204 0
-63 -7 204 0
-203 201 0
-204 201 0
203 204 -201 0
8 64 -205 0
-8 64 205 0
8 -64 205 0
-8 -64 -205 0
205 201 -120 0
-205 201 120 0
205 -201 120 0
-205 -201 -120 0
201 -206 0
205 -206 0
-201 -205 206 0
64 -207 0
8 -207 0
-64 -8 207 0
-206 192 0
-207 192 0
206 207 -192 0
194 -208 0
198 -208 0
202 -208 0
205 -208 0
-194 -198 -202 -205 208 0
207 -209 0
-207 209 0
191 -210 0
208 -210 0
-191 -208 210 0
-210 211 0
-192 211 0
210 192 -211 0
9 65 -214 0
-9 65 214 0
9 -65 214 0
-9 -65 -214 0
214 211 -121 0
-214 211 121 0
214 -211 121 0
-214 -211 -121 0
211 -215 0
214 -215 0
-211 -214 215 0
65 -216 0
9 -216 0
-65 -9 216 0
-215 213 0
-216 213 0
215 216 -213 0
10 66 -218 0
-10 66 218 0
10 -66 218 0
-10 -66 -218 0
218 213 -122 0
-218 213 122 0
218 -213 122 0
-218 -213 -122 0
213 -219 0
218 -219 0
-213 -218 219 0
66 -220 0
10 -220 0
-66 -10 220 0
-219 217 0
-220 217 0
219 220 -217 0
11 67 -222 0
-11 67 222 0
11 -67 222 0
-11 -67 -222 0
222 217 -123 0
-222 217 123 0
222 -217 123 0
-222 -217 -123 0
217 -223 0
222 -223 0
-217 -222 223 0
67 -224 0
11 -224 0
-67 -11 224 0
-223 221 0
-224 221 0
223 224 -221 0
12 68 -225 0
-12 68 225 0
12 -68 225 0
-12 -68 -225 0
225 221 -124 0
-225 221 124 0
225 -221 124 0
-225 -221 -124 0
221 -226 0
225 -226 0
-221 -225 226 0
68 -227 0
12 -227 0
-68 -12 227 0
-226 212 0
-227 212 0
226 227 -212 0
214 -228 0
218 -228 0
222 -228 0
225 -228 0
-214 -218 -222 -225 228 0
227 -229 0
-227 229 0
211 -230 0
228 -230 0
-211 -228 230 0
-230 231 0
-212 231 0
230 212 -231 0
13 69 -234 0
-13 69 234 0
13 -69 234 0
-13 -69 -234 0
234 231 -125 0
-234 231 125 0
234 -231 125 0
-234 -231 -125 0
231 -235 0
234 -235 0
-231 -234 235 0
69 -236 0
13 -236 0
-69 -13 236 0
-235 233 0
-236 233 0
235 236 -233 0
14 70 -238 0
-14 70 238 0
14 -70 238 0
-14 -70 -238 0
238 233 -126 0
-238 233 126 0
238 -233 126 0
-238 -233 -126 0
233 -239 0
238 -239 0
-233 -238 239 0
70 -240 0
14 -240 0
-70 -14 240 0
-239 237 0
-240 237 0
239 240 -237 0
15 71 -242 0
-15 71 242 0
15 -71 242 0
-15 -71 -242 0
242 237 -127 0
-242 237 127 0
242 -237 127 0
-242 -237 -127 0
237 -243 0
242 -243 0
-237 -242 243 0
71 -244 0
15 -244 0
-71 -15 244 0
-243 241 0
-244 241 0
243 244 -241 0
16 72 -245 0
-16 72 245 0
16 -72 245 0
-16 -72 -245 0
245 241 -128 0
-245 241 128 0
245 -241 128 0
-245 -241 -128 0
241 -246 0
245 -246 0
-241 -245 246 0
72 -247 0
16 -247 0
-72 -16 247 0
-246 232 0
-247 232 0
246 247 -232 0
234 -248 0
238 -248 0
242 -248 0
245 -248 0
-234 -238 -242 -245 248 0
247 -249 0
-247 249 0
231 -250 0
248 -250 0
-231 -248 250 0
-250 251 0
-232 251 0
250 232 -251 0
17 73 -254 0
-17 73 254 0
17 -73 254 0
-17 -73 -254 0
254 251 -129 0
-254 251 129 0
254 -251 129 0
-254 -251 -129 0
251 -255 0
254 -255 0
-251 -254 255 0
73 -256 0
17 -256 0
-73 -17 256 0
-255 253 0
-256 253 0
255 256 -253 0
18 74 -258 0
-18 74 258 0
18 -74 258 0
-18 -74 -258 0
258 253 -130 0
-258 253 130 0
258 -253 130 0
-258 -253 -130 0
253 -259 0
258 -259 0
-253 -258 259 0
74 -260 0
18 -260 0
-74 -18 260 0
-259 257 0
-260 257 0
259 260 -257 0
19 75 -262 0
-19 75 262 0
19 -75 262 0
-19 -75 -262 0
262 257 -131 0
-262 257 131 0
262 -257 131 0
-262 -257 -131 0
257 -263 0
262 -263 0
-257 -262 263 0
75 -264 0
19 -264 0
-75 -19 264 0
-263 261 0
-264 261 0
263 264 -261 0
20 76 -265 0
-20 76 265 0
20 -76 265 0
-20 -76 -265 0
265 261 -132 0
-265 261 132 0
265 -261 132 0
-265 -261 -132 0
261 -266 0
265 -266 0
-261 -265 266 0
76 -267 0
20 -267 0
-76 -20 267 0
-266 252 0
-267 252 0
266 267 -252 0
254 -268 0
258 -268 0
262 -268 0
265 -268 0
-254 -258 -262 -265 268 0
267 -269 0
-267 269 0
251 -270 0
268 -270 0
-251 -268 270 0
-270 271 0
-252 271 0
270 252 -271 0
21 77 -274 0
-21 77 274 0
21 -77 274 0
-21 -77 -274 0
274 271 -133 0
-274 271 133 0
274 -271 133 0
-274 -271 -133 0
271 -275 0
274 -275 0
-271 -274 275 0
77 -276 0
21 -276 0
-77 -21 276 0
-275 273 0
-276 273 0
275 276 -273 0
22 78 -278 0
-22 78 278 0
22 -78 278 0
-22 -78 -278 0
278 273 -134 0
-278 273 134 0
278 -273 134 0
-278 -273 -134 0
273 -279 0
278 -279 0
-273 -278 279 0
78 -280 0
22 -280 0
-78 -22 280 0
-279 277 0
-280 277 0
279 280 -277 0
23 79 -282 0
-23 79 282 0
23 -79 282 0
-23 -79 -282 0
282 277 -135 0
-282 277 135 0
282 -277 135 0
-282 -277 -135 0
277 -283 0
282 -283 0
-277 -282 283 0
79 -284 0
23 -284 0
-79 -23 284 0
-283 281 0
-284 281 0
283 284 -281 0
24 80 -285 0
-24 80 285 0
24 -80 285 0
-24 -80 -285 0
285 281 -136 0
-285 281 136 0
285 -281 136 0
-285 -281 -136 0
281 -286 0
285 -286 0
-281 -285 286 0
80 -287 0
24 -287 0
-80 -24 287 0
-286 272 0
-287 272 0
286 287 -272 0
274 -288 0
278 -288 0
282 -288 0
285 -288 0
-274 -278 -282 -285 288 0
287 -289 0
-287 289 0
271 -290 0
288 -290 0
-271 -288 290 0
-290 291 0
-272 291 0
290 272 -291 0
25 81 -294 0
-25 81 294 0
25 -81 294 0
-25 -81 -294 0
294 291 -137 0
-294 291 137 0
294 -291 137 0
-294 -291 -137 0
291 -295 0
294 -295 0
-291 -294 295 0
81 -296 0
25 -296 0
-81 -25 296 0
-295 293 0
-296 293 0
295 296 -293 0
26 82 -298 0
-26 82 298 0
26 -82 298 0
-26 -82 -298 0
298 293 -138 0
-298 293 138 0
298 -293 138 0
-298 -293 -138 0
293 -299 0
298 -299 0
-293 -298 299 0
82 -300 0
26 -300 0
-82 -26 300 0
-299 297 0
-300 297 0
299 300 -297 0
27 83 -302 0
-27 83 302 0
27 -83 302 0
-27 -83 -302 0
302 297 -139 0
-302 297 139 0
302 -297 139 0
-302 -297 -139 0
297 -303 0
302 -303 0
-297 -302 303 0
83 -304 0
27 -304 0
-83 -27 304 0
-303 301 0
-304 301 0
303 304 -301 0
28 84 -305 0
-28 84 305 0
28 -84 305 0
-28 -84 -305 0
305 301 -140 0
-305 301 140 0
305 -301 140 0
-305 -301 -140 0
301 -306 0
305 -306 0
-301 -305 306 0
84 -307 0
28 -307 0
-84 -28 307 0
-306 292 0
-307 292 0
306 307 -292 0
294 -308 0
298 -308 0
302 -308 0
305 -308 0
-294 -298 -302 -305 308 0
307 -309 0
-307 309 0
291 -310 0
308 -310 0
-291 -308 310 0
-310 311 0
-292 311 0
310 292 -311 0
29 85 -314 0
-29 85 314 0
29 -85 314 0
-29 -85 -314 0
314 311 -141 0
-314 311 141 0
314 -311 141 0
-314 -311 -141 0
311 -315 0
314 -315 0
-311 -314 315 0
85 -316 0
29 -316 0
-85 -29 316 0
-315 313 0
-316 313 0
315 316 -313 0
30 86 -318 0
-30 86 318 0
30 -86 318 0
-30 -86 -318 0
318 313 -142 0
-318 313 142 0
318 -313 142 0
-318 -313 -142 0
313 -319 0
318 -319 0
-313 -318 319 0
86 -320 0
30 -320 0
-86 -30 320 0
-319 317 0
-320 317 0
319 320 -317 0
31 87 -322 0
-31 87 322 0
31 -87 322 0
-31 -87 -322 0
322 317 -143 0
-322 317 143 0
322 -317 143 0
-322 -317 -143 0
317 -323 0
322 -323 0
-317 -322 323 0
87 -324 0
31 -324 0
-87 -31 324 0
-323 321 0
-324 321 0
323 324 -321 0
32 88 -325 0
-32 88 325 0
32 -88 325 0
-32 -88 -325 0
325 321 -144 0
-325 321 144 0
325 -321 144 0
-325 -321 -144 0
321 -326 0
325 -326 0
-321 -325 326 0
88 -327 0
32 -327 0
-88 -32 327 0
-326 312 0
-327 312 0
326 327 -312 0
314 -328 0
318 -328 0
322 -328 0
325 -328 0
-314 -318 -322 -325 328 0
327 -329 0
-327 329 0
311 -330 0
328 -330 0
-311 -328 330 0
-330 331 0
-312 331 0
330 312 -331 0
33 89 -334 0
-33 89 334 0
33 -89 334 0
-33 -89 -334 0
334 331 -145 0
-334 331 145 0
334 -331 145 0
-334 -331 -145 0
331 -335 0
334 -335 0
-331 -334 335 0
89 -336 0
33 -336 0
-89 -33 336 0
-335 333 0
-336 333 0
335 336 -333 0
34 90 -338 0
-34 90 338 0
34 -90 338 0
-34 -90 -338 0
338 333 -146 0
-338 333 146 0
338 -333 146 0
-338 -333 -146 0
333 -339 0
338 -339 0
-333 -338 339 0
90 -340 0
34 -340 0
-90 -34 340 0
-339 337 0
-340 337 0
339 340 -337 0
35 91 -342 0
-35 91 342 0
35 -91 342 0
-35 -91 -342 0
342 337 -147 0
-342 337 147 0
342 -337 147 0
-342 -337 -147 0
337 -343 0
342 -343 0
-337 -342 343 0
91 -344 0
35 -344 0
-91 -35 344 0
-343 341 0
-344 341 0
343 344 -341 0
36 92 -345 0
-36 92 345 0
36 -92 345 0
-36 -92 -345 0
345 341 -148 0
-345 341 148 0
345 -341 148 0
-345 -341 -148 0
341 -346 0
345 -346 0
-341 -345 346 0
92 -347 0
36 -347 0
-92 -36 347 0
-346 332 0
-347 332 0
346 347 -332 0
334 -348 0
338 -348 0
342 -348 0
345 -348 0
-334 -338 -342 -345 348 0
347 -349 0
-347 349 0
331 -350 0
348 -350 0
-331 -348 350 0
-350 351 0
-332 351 0
350 332 -351 0
37 93 -354 0
-37 93 354 0
37 -93 354 0
-37 -93 -354 0
354 351 -149 0
-354 351 149 0
354 -351 149 0
-354 -351 -149 0
351 -355 0
354 -355 0
-351 -354 355 0
93 -356 0
37 -356 0
-93 -37 356 0
-355 353 0
-356 353 0
355 356 -353 0
38 94 -358 0
-38 94 358 0
38 -94 358 0
-38 -94 -358 0
358 353 -150 0
-358 353 150 0
358 -353 150 0
-358 -353 -150 0
353 -359 0
358 -359 0
-353 -358 359 0
94 -360 0
38 -360 0
-94 -38 360 0
-359 357 0
-360 357 0
359 360 -357 0
39 95 -362 0
-39 95 362 0
39 -95 362 0
-39 -95 -362 0
362 357 -151 0
-362 357 151 0
362 -357 151 0
-362 -357 -151 0
357 -363 0
362 -363 0
-357 -362 363 0
95 -364 0
39 -364 0
-95 -39 364 0
-363 361 0
-364 361 0
363 364 -361 0
40 96 -365 0
-40 96 365 0
40 -96 365 0
-40 -96 -365 0
365 361 -152 0
-365 361 152 0
365 -361 152 0
-365 -361 -152 0
361 -366 0
365 -366 0
-361 -365 366 0
96 -367 0
40 -367 0
-96 -40 367 0
-366 352 0
-367 352 0
366 367 -352 0
354 -368 0
358 -368 0
362 -368 0
365 -368 0
-354 -358 -362 -365 368 0
367 -369 0
-367 369 0
351 -370 0
368 -370 0
-351 -368 370 0
-370 371 0
-352 371 0
370 352 -371 0
41 97 -374 0
-41 97 374 0
41 -97 374 0
-41 -97 -374 0
374 371 -153 0
-374 371 153 0
374 -371 153 0
-374 -371 -153 0
371 -375 0
374 -375 0
-371 -374 375 0
97 -376 0
41 -376 0
-97 -41 376 0
-375 373 0
-376 373 0
375 376 -373 0
42 98 -378 0
-42 98 378 0
42 -98 378 0
-42 -98 -378 0
378 373 -154 0
-378 373 154 0
378 -373 154 0
-378 -373 -154 0
373 -379 0
378 -379 0
-373 -378 379 0
98 -380 0
42 -380 0
-98 -42 380 0
-379 377 0
-380 377 0
379 380 -377 0
43 99 -382 0
-43 99 382 0
43 -99 382 0
-43 -99 -382 0
382 377 -155 0
-382 377 155 0
382 -377 155 0
-382 -377 -155 0
377 -383 0
382 -383 0
-377 -382 383 0
99 -384 0
43 -384 0
-99 -43 384 0
-383 381 0
-384 381 0
383 384 -381 0
44 100 -385 0
-44 100 385 0
44 -100 385 0
-44 -100 -385 0
385 381 -156 0
-385 381 156 0
385 -381 156 0
-385 -381 -156 0
381 -386 0
385 -386 0
-381 -385 386 0
100 -387 0
44 -387 0
-100 -44 387 0
-386 372 0
-387 372 0
386 387 -372 0
374 -388 0
378 -388 0
382 -388 0
385 -388 0
-374 -378 -382 -385 388 0
387 -389 0
-387 389 0
371 -390 0
388 -390 0
-371 -388 390 0
-390 391 0
-372 391 0
390 372 -391 0
45 101 -394 0
-45 101 394 0
45 -101 394 0
-45 -101 -394 0
394 391 -157 0
-394 391 157 0
394 -391 157 0
-394 -391 -157 0
391 -395 0
394 -395 0
-391 -394 395 0
101 -396 0
45 -396 0
-101 -45 396 0
-395 393 0
-396 393 0
395 396 -393 0
46 102 -398 0
-46 102 398 0
46 -102 398 0
-46 -102 -398 0
398 393 -158 0
-398 393 158 0
398 -393 158 0
-398 -393 -158 0
393 -399 0
398 -399 0
-393 -398 399 0
102 -400 0
46 -400 0
-102 -46 400 0
-399 397 0
-400 397 0
399 400 -397 0
47 103 -402 0
-47 103 402 0
47 -103 402 0
-47 -103 -402 0
402 397 -159 0
-402 397 159 0
402 -397 159 0
-402 -397 -159 0
397 -403 0
402 -403 0
-397 -402 403 0
103 -404 0
47 -404 0
-103 -47 404 0
-403 401 0
-404 401 0
403 404 -401 0
48 104 -405 0
-48 104 405 0
48 -104 405 0
-48 -104 -405 0
405 401 -160 0
-405 401 160 0
405 -401 160 0
-405 -401 -160 0
401 -406 0
405 -406 0
-401 -405 406 0
104 -407 0
48 -407 0
-104 -48 407 0
-406 392 0
-407 392 0
406 407 -392 0
394 -408 0
398 -408 0
402 -408 0
405 -408 0
-394 -398 -402 -405 408 0
407 -409 0
-407 409 0
391 -410 0
408 -410 0
-391 -408 410 0
-410 411 0
-392 411 0
410 392 -411 0
49 105 -414 0
-49 105 414 0
49 -105 414 0
-49 -105 -414 0
414 411 -161 0
-414 411 161 0
414 -411 161 0
-414 -411 -161 0
411 -415 0
414 -415 0
-411 -414 415 0
105 -416 0
49 -416 0
-105 -49 416 0
-415 413 0
-416 413 0
415 416 -413 0
50 106 -418 0
-50 106 418 0
50 -106 418 0
-50 -106 -418 0
418 413 -162 0
-418 413 162 0
418 -413 162 0
-418 -413 -162 0
413 -419 0
418 -419 0
-413 -418 419 0
106 -420 0
50 -420 0
-106 -50 420 0
-419 417 0
-420 417 0
419 420 -417 0
51 107 -422 0
-51 107 422 0
51 -107 422 0
-51 -107 -422 0
422 417 -163 0
-422 417 163 0
422 -417 163 0
-422 -417 -163 0
417 -423 0
422 -423 0
-417 -422 423 0
107 -424 0
51 -424 0
-107 -51 424 0
-423 421 0
-424 421 0
423 424 -421 0
52 108 -425 0
-52 108 425 0
52 -108 425 0
-52 -108 -425 0
425 421 -164 0
-425 421 164 0
425 -421 164 0
-425 -421 -164 0
421 -426 0
425 -426 0
-421 -425 426 0
108 -427 0
52 -427 0
-108 -52 427 0
-426 412 0
-427 412 0
426 427 -412 0
414 -428 0
418 -428 0
422 -428 0
425 -428 0
-414 -418 -422 -425 428 0
427 -429 0
-427 429 0
411 -430 0
428 -430 0
-411 -428 430 0
-430 431 0
-412 431 0
430 412 -431 0
53 109 -434 0
-53 109 434 0
53 -109 434 0
-53 -109 -434 0
434 431 -165 0
-434 431 165 0
434 -431 165 0
-434 -431 -165 0
431 -435 0
434 -435 0
-431 -434 435 0
109 -436 0
53 -436 0
-109 -53 436 0
-435 433 0
-436 433 0
435 436 -433 0
54 110 -438 0
-54 110 438 0
54 -110 438 0
-54 -110 -438 0
438 433 -166 0
-438 433 166 0
438 -433 166 0
-438 -433 -166 0
433 -439 0
438 -439 0
-433 -438 439 0
110 -440 0
54 -440 0
-110 -54 440 0
-439 437 0
-440 437 0
439 440 -437 0
55 111 -442 0
-55 111 442 0
55 -111 442 0
-55 -111 -442 0
442 437 -167 0
-442 437 167 0
442 -437 167 0
-442 -437 -167 0
437 -443 0
442 -443 0
-437 -442 443 0
111 -444 0
55 -444 0
-111 -55 444 0
-443 441 0
-444 441 0
443 444 -441 0
56 112 -445 0
-56 112 445 0
56 -112 445 0
-56 -112 -445 0
445 441 -168 0
-445 441 168 0
445 -441 168 0
-445 -441 -168 0
441 -446 0
445 -446 0
-441 -445 446 0
112 -447 0
56 -447 0
-112 -56 447 0
-446 432 0
-447 432 0
446 447 -432 0
434 -448 0
438 -448 0
442 -448 0
445 -448 0
-434 -438 -442 -445 448 0
447 -449 0
-447 449 0
431 -450 0
448 -450 0
-431 -448 450 0
-450 451 0
-432 451 0
450 432 -451 0
451 -169 0
-451 169 0
